p cnf 560 1090
-17  13  -14  0
21  -17  -18  0
29  25  26  0
-37  -33  -34  0
-45  41  42  0
-61  57  58  0
77  73  74  0
-85  -81  -82  0
105  -101  102  0
109  105  -106  0
-117  -113  -114  0
-121  -117  -118  0
-125  121  -122  0
-129  125  126  0
133  129  -130  0
137  -133  134  0
-149  145  146  0
-153  -149  -150  0
-157  153  154  0
161  -157  -158  0
177  -173  -174  0
-181  177  -178  0
-189  -185  186  0
193  -189  -190  0
-197  -193  194  0
201  -197  -198  0
-205  -201  -202  0
209  205  206  0
217  -213  214  0
-221  217  -218  0
-229  225  -226  0
-233  -229  -230  0
-241  -237  -238  0
-249  -245  -246  0
253  -249  -250  0
-257  -253  -254  0
261  -257  258  0
265  -261  262  0
269  265  -266  0
-273  -269  -270  0
-277  273  274  0
281  277  -278  0
289  -285  286  0
293  289  -290  0
297  -293  294  0
301  -297  -298  0
309  305  -306  0
-313  -309  -310  0
321  -317  -318  0
-329  325  326  0
-341  -337  338  0
-349  345  346  0
-353  349  -350  0
357  -353  354  0
361  -357  358  0
365  361  -362  0
369  365  366  0
373  -369  370  0
381  377  378  0
389  385  386  0
-401  -397  -398  0
-405  -401  402  0
425  421  422  0
429  425  426  0
-433  429  430  0
-437  433  -434  0
441  437  438  0
-449  445  446  0
-453  449  -450  0
-469  -465  466  0
-477  473  -474  0
-485  481  482  0
-489  485  486  0
-497  493  494  0
501  -497  498  0
-505  -501  502  0
509  -505  -506  0
517  -513  -514  0
-525  521  -522  0
533  529  530  0
-537  -533  -534  0
545  -541  -542  0
-549  -545  546  0
-557  -553  -554  0
6  5  2  0
-6  5  -1  0
6  1  -2  0
6  2  3  0
10  9  6  0
-10  9  5  0
14  13  10  0
-14  -13  -9  0
-14  -9  -10  0
-14  10  11  0
-18  -17  13  0
18  13  -14  0
-18  -14  15  0
-22  -21  -18  0
-22  21  17  0
22  -18  19  0
-34  33  -29  0
34  30  -31  0
-38  37  34  0
-38  34  -35  0
42  -41  38  0
-42  -41  37  0
42  37  38  0
42  38  39  0
-46  45  -42  0
46  -45  41  0
46  -41  -42  0
46  42  43  0
-50  -49  -46  0
50  46  -47  0
54  -53  50  0
54  -53  -49  0
-54  49  50  0
-54  50  51  0
-58  57  54  0
-58  57  -53  0
-58  -53  54  0
-62  61  58  0
62  -57  -58  0
62  -58  59  0
66  -65  -62  0
66  65  61  0
-66  61  -62  0
-66  62  -63  0
70  69  66  0
70  69  -65  0
-74  73  -69  0
-74  -70  71  0
78  -77  74  0
78  -74  75  0
-82  -81  -78  0
-82  -81  -77  0
82  -77  78  0
86  -81  -82  0
-90  89  -86  0
-90  -85  86  0
-94  -89  -90  0
94  90  91  0
98  97  -94  0
98  97  -93  0
-102  101  98  0
-106  105  102  0
106  105  -101  0
-106  -101  102  0
-106  -102  -103  0
110  109  -105  0
-110  -106  107  0
-114  113  110  0
-114  -113  -109  0
-114  110  -111  0
118  -113  -114  0
-118  -114  -115  0
122  121  118  0
-122  121  117  0
122  -118  119  0
126  -125  122  0
-126  125  -121  0
126  -122  -123  0
-130  129  -126  0
-130  -125  126  0
134  133  -130  0
-134  133  -129  0
-134  130  131  0
-138  -137  -134  0
138  -137  133  0
138  133  -134  0
-142  -141  -138  0
142  141  -137  0
146  145  142  0
-146  -145  141  0
146  141  142  0
150  -149  146  0
150  -145  146  0
-150  146  -147  0
154  -153  149  0
-154  149  -150  0
-158  157  154  0
158  154  155  0
162  -161  -157  0
162  157  -158  0
-166  -165  -162  0
166  -161  162  0
-170  -169  166  0
170  165  166  0
-170  166  167  0
-174  -173  -169  0
174  -169  170  0
-178  -177  -174  0
-178  177  -173  0
178  173  -174  0
-178  174  175  0
182  -181  -178  0
182  181  177  0
-182  177  178  0
-186  185  182  0
186  185  181  0
194  -193  189  0
-194  189  -190  0
194  190  191  0
198  -197  -194  0
-198  -197  -193  0
198  193  194  0
-198  194  -195  0
-202  -201  -198  0
-202  -197  198  0
202  -198  199  0
206  -205  201  0
-206  201  -202  0
-206  202  203  0
-210  -209  206  0
-210  -209  -205  0
210  -206  207  0
214  -213  -210  0
214  -213  209  0
214  209  210  0
-218  -217  -214  0
-218  217  -213  0
218  213  -214  0
218  -214  215  0
-222  221  218  0
-222  221  217  0
-222  -217  -218  0
-222  -218  219  0
-226  -225  -222  0
226  221  -222  0
226  -222  -223  0
-230  -229  -226  0
-230  229  225  0
-230  226  -227  0
234  -233  230  0
-234  -229  230  0
-234  230  231  0
238  237  -234  0
-238  -237  233  0
-238  -233  -234  0
-242  241  -237  0
242  -238  239  0
-246  245  242  0
246  -245  -241  0
246  241  -242  0
250  -249  -246  0
-250  245  -246  0
254  253  -250  0
-254  -249  250  0
-254  250  251  0
258  253  -254  0
258  -254  -255  0
262  -258  259  0
266  265  -262  0
266  265  -261  0
-266  -261  262  0
-266  262  -263  0
-270  269  -265  0
-274  -273  270  0
-278  -277  -274  0
278  277  273  0
-278  -273  274  0
-282  281  -278  0
-282  277  -278  0
286  -285  -282  0
286  282  -283  0
290  -289  -286  0
290  -286  287  0
294  293  -290  0
294  -293  -289  0
-298  -297  -294  0
302  301  -298  0
302  -301  297  0
-306  -305  -302  0
306  -301  302  0
-310  309  -306  0
310  -305  306  0
-310  -306  307  0
314  -309  -310  0
318  -317  -314  0
318  317  313  0
322  321  -318  0
-322  317  318  0
-322  -318  319  0
-326  325  322  0
-326  325  321  0
326  321  322  0
326  322  323  0
330  329  325  0
-330  -325  326  0
-330  -326  -327  0
334  -333  -330  0
-334  333  329  0
334  330  -331  0
338  337  -334  0
338  -337  333  0
338  333  334  0
-342  341  -338  0
-342  -337  -338  0
-342  -338  339  0
-346  345  341  0
346  342  -343  0
-350  349  -345  0
350  345  -346  0
350  346  347  0
354  -353  -349  0
-354  -349  350  0
358  -353  354  0
358  -354  -355  0
362  -361  358  0
362  -361  357  0
362  -357  -358  0
-362  -358  -359  0
-366  -365  -362  0
366  -365  361  0
366  362  363  0
370  -369  -366  0
370  -369  -365  0
370  365  -366  0
-370  366  367  0
374  373  -370  0
-374  373  -369  0
378  -377  373  0
-378  373  374  0
-378  374  -375  0
382  -381  -377  0
382  377  378  0
-386  385  -382  0
-386  -385  381  0
390  389  -386  0
-390  389  -385  0
-390  385  386  0
-390  -386  -387  0
-394  -393  -390  0
394  -390  -391  0
398  -397  393  0
398  -393  -394  0
398  394  395  0
402  -401  398  0
-402  401  397  0
-402  -397  398  0
-402  398  399  0
406  405  -402  0
406  405  401  0
410  409  406  0
-410  -409  -405  0
-410  -405  406  0
-410  406  407  0
414  -413  410  0
414  413  409  0
418  417  413  0
418  413  414  0
-418  414  415  0
422  -421  -418  0
-422  -418  -419  0
-426  425  422  0
426  425  -421  0
426  -421  -422  0
-426  422  -423  0
-430  -429  -426  0
-430  429  425  0
-434  -433  -430  0
434  -433  -429  0
-434  -429  -430  0
434  430  431  0
-438  -433  434  0
-442  441  -437  0
-442  -437  438  0
-442  -438  439  0
-446  445  -442  0
-446  442  -443  0
450  -449  446  0
-450  -449  -445  0
-450  445  -446  0
-450  446  447  0
-454  453  -450  0
454  453  449  0
454  -449  -450  0
458  -457  -453  0
458  -453  -454  0
462  461  -458  0
-462  457  -458  0
-462  -458  459  0
-466  -465  462  0
-466  -465  461  0
-466  462  -463  0
470  -465  466  0
470  -466  -467  0
-474  473  -470  0
474  473  -469  0
-478  477  474  0
478  477  473  0
-478  -474  -475  0
-482  481  477  0
482  477  478  0
-486  485  482  0
486  -485  -481  0
490  489  -486  0
-490  489  -485  0
-490  485  -486  0
490  486  487  0
494  493  489  0
494  -489  -490  0
494  490  -491  0
-498  -497  494  0
498  -497  493  0
498  493  -494  0
-498  494  -495  0
502  501  498  0
-506  505  501  0
-506  501  502  0
506  -502  -503  0
510  -509  506  0
510  -505  506  0
-514  513  -510  0
-514  -510  -511  0
518  517  -514  0
518  517  -513  0
-518  513  514  0
518  514  -515  0
-522  521  -518  0
-522  518  -519  0
526  525  522  0
526  -525  521  0
526  -521  522  0
526  522  -523  0
-530  -529  526  0
530  529  525  0
-534  529  530  0
-534  530  -531  0
-538  -537  534  0
538  -537  533  0
538  -533  534  0
538  534  535  0
542  541  537  0
-542  -537  538  0
-546  545  -542  0
-546  541  -542  0
-546  -542  -543  0
550  -545  546  0
-554  553  550  0
554  -553  -549  0
-558  -557  554  0
558  557  553  0
558  553  554  0
558  554  -555  0
-7  -6  3  0
7  -6  -2  0
-7  2  -3  0
7  3  4  0
-11  10  7  0
-11  10  6  0
11  7  -8  0
15  -14  -11  0
15  14  10  0
19  18  15  0
-19  -18  14  0
23  22  -19  0
-23  22  18  0
-23  19  -20  0
-27  26  23  0
27  22  23  0
27  23  24  0
31  30  -27  0
31  30  26  0
-31  -27  28  0
35  -34  31  0
35  34  -30  0
35  -30  -31  0
-35  31  -32  0
-39  -38  -35  0
-39  -34  -35  0
43  42  39  0
-43  -42  38  0
-43  38  -39  0
43  39  -40  0
47  -46  -43  0
-47  -42  43  0
47  43  44  0
-51  -50  47  0
51  -47  -48  0
-55  54  51  0
55  -50  51  0
55  51  52  0
-59  58  -55  0
-59  -58  -54  0
-59  -54  55  0
-59  55  56  0
-63  59  -60  0
67  66  63  0
-67  -62  -63  0
-67  63  -64  0
71  -70  -67  0
71  70  66  0
-71  66  -67  0
-75  -74  -71  0
75  -74  70  0
-75  -70  71  0
79  -78  -75  0
-79  -78  74  0
79  74  75  0
-83  82  79  0
83  -82  -78  0
-83  78  -79  0
-87  -86  -83  0
-87  86  -82  0
-87  -82  -83  0
-87  83  84  0
-91  -90  -87  0
91  -90  86  0
-91  -86  87  0
-95  90  -91  0
95  91  -92  0
99  -98  94  0
99  -95  -96  0
103  -102  -99  0
103  -98  -99  0
103  99  -100  0
-111  110  -107  0
111  106  -107  0
111  -107  108  0
-115  -114  -110  0
-115  -110  111  0
119  -118  -114  0
-119  -115  116  0
-127  -126  123  0
-127  -126  -122  0
131  130  -127  0
131  -130  126  0
-131  126  127  0
131  -127  128  0
-135  -134  -131  0
-135  -131  132  0
139  -134  -135  0
139  -135  136  0
143  142  -139  0
143  -142  -138  0
147  146  -143  0
-147  142  143  0
-147  143  144  0
151  150  147  0
151  -150  146  0
151  -146  147  0
-151  -147  148  0
155  154  -151  0
-155  -150  -151  0
-155  -151  152  0
-159  -158  -155  0
-159  158  154  0
-159  154  -155  0
-159  155  -156  0
-163  162  -159  0
163  -158  159  0
-167  163  164  0
-171  170  167  0
-171  -166  167  0
171  -167  -168  0
175  -174  -171  0
175  -170  -171  0
-175  171  -172  0
179  178  175  0
179  -178  174  0
-179  174  -175  0
-187  -186  -182  0
187  182  -183  0
-191  -187  -188  0
-195  -194  190  0
-195  190  -191  0
-199  -198  195  0
199  -195  196  0
203  202  -199  0
203  202  -198  0
203  198  -199  0
203  -199  200  0
207  -206  202  0
207  -202  -203  0
-207  203  -204  0
211  -210  206  0
-211  207  208  0
215  -214  -211  0
-215  -210  -211  0
-219  -218  215  0
219  218  -214  0
-219  -214  -215  0
219  -215  216  0
223  -222  -219  0
223  222  -218  0
-223  -218  -219  0
-223  219  -220  0
-227  222  -223  0
-227  223  224  0
-231  230  -227  0
-231  -230  226  0
-231  226  227  0
231  227  -228  0
-235  234  231  0
-235  234  230  0
235  231  232  0
-239  238  235  0
239  -238  -234  0
243  242  238  0
-243  -238  239  0
-247  246  -242  0
247  -243  244  0
-251  250  247  0
251  250  246  0
251  246  -247  0
251  -247  -248  0
255  -254  -251  0
-255  -254  -250  0
-255  250  -251  0
255  -251  252  0
-259  -254  -255  0
-263  -262  -258  0
-263  -258  259  0
-267  266  -263  0
-267  266  -262  0
267  262  263  0
-267  263  264  0
271  270  266  0
-271  -267  -268  0
-275  274  -271  0
275  270  -271  0
-275  271  -272  0
-279  278  275  0
-279  -278  -274  0
-279  274  275  0
279  -275  -276  0
283  282  -278  0
-283  -279  280  0
-287  286  -283  0
287  -282  283  0
-287  283  -284  0
291  -290  -287  0
-291  286  287  0
-291  -287  -288  0
-299  -298  -295  0
299  298  -294  0
303  302  -299  0
-303  298  -299  0
-303  299  300  0
-307  306  -303  0
307  -306  -302  0
-307  302  303  0
-311  310  -307  0
-311  310  306  0
311  306  307  0
-315  -314  -310  0
315  311  -312  0
-319  318  -315  0
-319  318  314  0
-319  -315  -316  0
-323  322  318  0
-323  -319  -320  0
327  -322  -323  0
-331  -330  327  0
331  326  327  0
331  -327  -328  0
335  334  -331  0
-335  334  -330  0
-339  -338  335  0
339  338  334  0
-339  -334  335  0
339  335  -336  0
343  342  339  0
343  342  -338  0
343  338  -339  0
347  346  343  0
347  346  342  0
347  -342  343  0
347  343  344  0
-351  -350  347  0
-351  350  346  0
-351  347  -348  0
-355  -350  351  0
355  351  352  0
-359  -358  -355  0
359  -358  354  0
359  354  355  0
363  362  -359  0
363  359  -360  0
367  366  -363  0
367  363  364  0
371  370  367  0
-371  -370  366  0
-375  374  -371  0
375  370  -371  0
375  371  372  0
-379  -374  375  0
-379  -375  -376  0
383  382  -379  0
383  382  -378  0
383  378  -379  0
-383  379  380  0
387  386  -383  0
387  386  -382  0
387  383  -384  0
-391  390  -387  0
391  -390  386  0
-391  387  388  0
395  -394  -391  0
-395  394  390  0
395  390  391  0
-395  -391  -392  0
399  -398  394  0
-399  394  -395  0
399  395  396  0
-403  402  399  0
-403  -402  398  0
403  -398  399  0
407  406  403  0
407  -406  402  0
-407  402  -403  0
-411  -410  -407  0
411  406  -407  0
411  -407  -408  0
415  414  411  0
415  414  -410  0
415  410  411  0
-415  -411  412  0
-423  -418  419  0
423  -419  -420  0
-427  -426  -423  0
-427  426  422  0
427  -422  423  0
427  -423  424  0
-431  -430  427  0
431  430  426  0
431  426  427  0
431  427  428  0
-435  434  -431  0
-435  -431  432  0
439  438  -435  0
-439  435  436  0
-443  442  439  0
443  442  438  0
447  442  -443  0
-447  -443  444  0
451  450  447  0
-451  -450  446  0
451  -446  -447  0
451  447  -448  0
-455  454  451  0
-455  -454  -450  0
459  458  -455  0
459  -458  454  0
459  454  455  0
459  -455  -456  0
463  -458  -459  0
-463  -459  -460  0
-467  -466  463  0
-467  -463  -464  0
-471  -470  467  0
471  470  -466  0
-471  -467  -468  0
475  -474  -470  0
-475  470  -471  0
-475  -471  472  0
479  -478  -475  0
479  -474  475  0
479  475  -476  0
483  482  -479  0
483  -478  -479  0
483  -479  480  0
487  -486  483  0
-487  486  482  0
487  -482  -483  0
487  483  -484  0
-491  -490  -487  0
491  -490  486  0
-491  -486  487  0
-491  487  488  0
-495  494  491  0
-495  494  -490  0
-495  491  492  0
499  498  -495  0
-499  -494  -495  0
-499  -495  496  0
-503  502  -499  0
-503  502  -498  0
-503  498  -499  0
-507  -506  503  0
-507  506  502  0
507  -503  -504  0
-511  510  -506  0
-511  -506  -507  0
-511  -507  508  0
-515  -514  -511  0
-515  514  510  0
-515  510  511  0
515  -511  512  0
-519  518  -514  0
519  515  516  0
523  -522  518  0
-523  519  520  0
-527  526  523  0
527  522  -523  0
527  -523  -524  0
531  -530  526  0
531  526  -527  0
-531  -527  528  0
-535  -534  -531  0
-535  534  530  0
-539  -534  -535  0
539  535  -536  0
543  -542  -539  0
-543  -542  -538  0
543  -538  539  0
543  539  -540  0
-547  -542  543  0
-547  543  -544  0
551  -546  547  0
-551  -547  548  0
555  -554  551  0
-555  -554  550  0
555  550  -551  0
555  551  552  0
559  -558  -555  0
-559  -555  -556  0
-8  7  4  0
8  7  3  0
-8  -3  4  0
12  -11  8  0
12  11  7  0
12  -7  8  0
-16  -15  -12  0
-16  -15  -11  0
-16  11  -12  0
20  -19  16  0
-20  -15  16  0
-24  23  -20  0
-24  -19  20  0
-28  27  -24  0
-28  23  -24  0
-32  -31  27  0
-36  -31  32  0
-40  39  36  0
40  39  -35  0
44  -43  -40  0
-44  -43  -39  0
48  47  -44  0
48  -47  43  0
-48  43  44  0
-52  51  48  0
52  51  -47  0
-52  47  -48  0
-56  55  -51  0
-60  59  55  0
68  -67  64  0
-68  67  -63  0
-68  -63  64  0
-72  71  -67  0
76  75  -72  0
-76  -75  -71  0
-80  -79  -75  0
80  -75  -76  0
84  -83  -80  0
-84  -79  -80  0
88  87  -84  0
92  91  -88  0
-92  91  -87  0
-92  -87  88  0
100  -99  96  0
100  -99  95  0
100  95  -96  0
-104  103  100  0
-108  -107  104  0
-108  107  -103  0
-108  -103  104  0
-112  -111  107  0
-116  -115  112  0
-116  115  111  0
-116  111  112  0
-120  -119  -116  0
120  119  -115  0
124  -123  120  0
124  123  -119  0
124  -119  -120  0
128  123  124  0
-132  131  128  0
-136  -135  -132  0
136  135  131  0
-136  -131  -132  0
-140  139  -136  0
-140  -139  135  0
-140  -135  136  0
144  -143  140  0
-144  -143  -139  0
-148  -147  -144  0
-148  147  143  0
-148  -143  -144  0
156  -155  -151  0
-156  151  152  0
160  159  155  0
-160  -155  156  0
164  -163  -160  0
164  163  159  0
-164  159  160  0
-168  167  164  0
168  -167  -163  0
168  163  164  0
172  171  -168  0
-172  171  167  0
-172  -167  -168  0
-176  175  -171  0
-176  -171  -172  0
180  -179  -176  0
180  -175  -176  0
-184  -183  180  0
184  183  179  0
192  -191  188  0
-192  -191  -187  0
192  187  188  0
-196  -195  192  0
196  191  192  0
200  -199  196  0
-200  -195  -196  0
204  203  -200  0
-208  -207  -204  0
208  -207  203  0
-208  -203  -204  0
212  -211  208  0
212  -211  207  0
-212  207  -208  0
-216  -215  211  0
-216  211  212  0
220  -219  216  0
220  219  215  0
220  -215  -216  0
-224  223  220  0
224  -219  -220  0
-228  -227  -224  0
-228  223  224  0
232  231  228  0
-232  -231  227  0
232  227  228  0
-236  235  -231  0
-236  -231  232  0
-240  239  235  0
-244  -243  -239  0
-248  247  -244  0
248  247  -243  0
248  243  -244  0
-252  251  -248  0
252  -247  -248  0
256  -255  252  0
-256  251  -252  0
260  259  256  0
-260  259  255  0
-260  -255  -256  0
-268  -267  -264  0
268  -263  264  0
-272  271  268  0
-272  271  267  0
272  267  -268  0
276  -275  -272  0
276  -271  272  0
280  -279  -276  0
280  -279  275  0
-280  -275  -276  0
284  -283  280  0
284  -279  280  0
288  287  -284  0
-288  287  283  0
-288  -283  -284  0
292  -291  -288  0
-292  291  287  0
292  -287  288  0
-300  299  296  0
-300  -299  295  0
-304  -299  -300  0
-308  -307  304  0
308  -307  303  0
308  303  304  0
-312  311  308  0
-312  -311  307  0
-316  315  312  0
-316  -315  -311  0
316  311  -312  0
320  319  -316  0
-320  319  -315  0
320  -315  -316  0
-324  -323  320  0
324  -323  -319  0
328  -327  -323  0
332  -331  -327  0
-332  327  328  0
336  335  332  0
336  -335  -331  0
-340  339  336  0
340  -335  336  0
344  -343  -340  0
-344  -343  -339  0
344  339  340  0
-348  347  344  0
-348  347  -343  0
-356  355  352  0
356  -355  351  0
360  359  -355  0
364  -363  -360  0
-364  -363  359  0
-364  -359  -360  0
368  -367  -364  0
368  363  -364  0
372  -371  -368  0
372  -371  -367  0
372  -367  368  0
-376  -375  -372  0
384  383  -379  0
384  -379  -380  0
-388  -387  383  0
388  -383  384  0
396  395  -392  0
396  391  392  0
-400  -399  -395  0
400  -395  396  0
-404  403  -399  0
404  -399  400  0
408  -407  -403  0
-408  403  -404  0
412  -411  408  0
-412  407  -408  0
416  -415  -412  0
-420  419  416  0
-420  419  -415  0
424  423  -420  0
-424  -423  419  0
-424  -419  420  0
428  427  -423  0
-428  423  -424  0
-432  -431  -428  0
432  431  -427  0
440  439  436  0
-440  -439  435  0
440  -435  436  0
-444  443  -440  0
444  -439  -440  0
448  -447  444  0
-448  447  -443  0
-448  443  -444  0
452  -451  -448  0
-452  -447  448  0
456  455  -451  0
-460  459  456  0
-460  459  455  0
-460  -455  -456  0
464  -463  -459  0
-468  467  -463  0
-468  -463  464  0
-476  -475  472  0
476  475  -471  0
-480  479  475  0
480  475  476  0
484  483  480  0
488  487  -483  0
488  483  484  0
492  -491  -487  0
496  -495  -492  0
496  495  -491  0
496  491  -492  0
-500  499  -496  0
500  495  496  0
504  503  500  0
-504  499  -500  0
-508  -507  504  0
-508  -507  503  0
-512  -511  -508  0
512  511  -507  0
-512  -507  -508  0
516  515  511  0
-520  -515  516  0
-524  -523  -520  0
-524  523  519  0
-528  -527  -523  0
-528  -523  524  0
-532  531  -527  0
532  -527  528  0
536  -535  -532  0
-536  535  -531  0
-536  -531  532  0
540  539  -536  0
540  539  535  0
-544  543  540  0
-544  543  -539  0
-548  -547  -544  0
-548  -543  544  0
556  -555  -552  0
556  -555  551  0
556  -551  -552  0
-560  -559  -556  0
560  559  555  0
